data/solutions/recovery/degenerate/moderate/flexible/degenerate_moderate_instance20/9.sol
Elapsed time: 5.63
Upper bound: 154439501.0
Planning weighted value: 2210825490.0
C[0]=154439501.0
C[1]=154351841.0
C[2]=154113252.0
C[3]=154045272.0
y[0]=1
y[1]=3
y[2]=2
y[3]=1
y[4]=0
y[5]=2
y[6]=1
y[7]=3
y[8]=1
y[9]=3
y[10]=0
y[11]=1
y[12]=0
y[13]=1
y[14]=2
y[15]=0
y[16]=1
y[17]=3
y[18]=0
y[19]=3
y[20]=1
y[21]=2
y[22]=2
y[23]=0
y[24]=2
y[25]=3
y[26]=1
y[27]=3
y[28]=1
y[29]=0
y[30]=1
y[31]=2
y[32]=0
y[33]=2
y[34]=2
y[35]=3
